8605
[0, 24, 23, 47, 48, 71, 72, 73, 50, 49, 27, 28, 51, 52, 30, 31, 32, 10, 33, 34, 12, 11, 13, 14, 15, 38, 39, 40, 41, 18, 42, 19, 20, 44, 43, 66, 67, 68, 91, 90, 112, 111, 110, 133, 134, 135, 157, 158, 136, 159, 160, 137, 114, 113, 89, 88, 87, 86, 64, 63, 62, 61, 60, 37, 36, 35, 58, 57, 56, 55, 54, 53, 76, 75, 74, 97, 96, 95, 93, 92, 70, 69, 46, 25, 26, 4, 3, 2, 1, 5, 6, 7, 29, 8, 9, 79, 78, 77, 99, 100, 122, 98, 119, 118, 94, 116, 115, 117, 140, 141, 142, 143, 120, 121, 145, 146, 123, 124, 125, 102, 101, 103, 104, 105, 83, 84, 85, 109, 108, 107, 130, 131, 132, 154, 155, 177, 153, 152, 151, 150, 127, 129, 128, 106, 82, 81, 59, 80, 126, 148, 149, 172, 171, 170, 169, 168, 167, 144, 166, 165, 164, 163, 162, 161, 139, 138, 184, 185, 208, 207, 209, 232, 231, 230, 253, 254, 276, 277, 278, 279, 256, 281, 258, 257, 234, 233, 255, 210, 211, 188, 187, 186, 189, 190, 191, 192, 193, 194, 216, 215, 214, 213, 235, 212, 236, 237, 238, 239, 240, 217, 218, 219, 242, 243, 244, 266, 265, 264, 241, 263, 262, 285, 261, 260, 259, 282, 283, 305, 306, 329, 307, 330, 331, 332, 354, 353, 352, 351, 350, 349, 325, 326, 348, 347, 346, 345, 322, 323, 324, 300, 301, 302, 303, 280, 304, 327, 328, 375, 374, 396, 397, 398, 399, 400, 401, 424, 423, 446, 447, 470, 471, 472, 449, 450, 451, 452, 475, 476, 453, 454, 455, 456, 478, 479, 480, 504, 503, 525, 524, 523, 501, 500, 502, 526, 548, 549, 527, 528, 505, 482, 481, 458, 457, 434, 435, 436, 413, 412, 388, 411, 410, 387, 409, 386, 408, 407, 406, 405, 428, 427, 426, 425, 448, 404, 403, 402, 379, 378, 377, 355, 356, 357, 333, 334, 311, 310, 309, 308, 284, 286, 287, 288, 289, 267, 268, 245, 246, 247, 248, 226, 225, 224, 223, 199, 198, 197, 220, 196, 195, 173, 174, 175, 176, 200, 201, 202, 178, 179, 156, 181, 180, 203, 204, 205, 206, 228, 229, 252, 251, 274, 273, 250, 249, 271, 270, 269, 291, 292, 314, 313, 290, 315, 316, 317, 295, 294, 293, 272, 296, 297, 320, 321, 343, 344, 367, 366, 389, 390, 365, 364, 363, 340, 339, 338, 337, 336, 335, 312, 359, 382, 358, 380, 381, 383, 384, 360, 361, 362, 385, 341, 342, 318, 319, 298, 275, 227, 183, 182, 222, 221, 147, 65, 45, 22, 21, 17, 16, 299, 370, 369, 392, 393, 371, 394, 372, 373, 376, 421, 420, 419, 418, 417, 395, 440, 441, 442, 466, 443, 444, 467, 445, 468, 469, 493, 492, 515, 491, 490, 489, 465, 464, 463, 462, 461, 460, 483, 484, 485, 486, 508, 509, 510, 487, 488, 511, 512, 536, 535, 559, 558, 560, 561, 538, 537, 514, 513, 516, 540, 517, 518, 495, 494, 496, 473, 474, 498, 497, 520, 521, 522, 499, 477, 429, 430, 431, 432, 433, 459, 551, 574, 550, 573, 572, 571, 570, 569, 546, 547, 545, 544, 567, 568, 566, 565, 564, 563, 562, 539, 541, 542, 543, 519, 534, 533, 556, 532, 531, 530, 529, 507, 506, 553, 552, 554, 555, 557, 439, 438, 437, 414, 415, 416, 391, 368, 422]
